p edge 200 3235
n 1 2
n 2 3
n 3 4
n 4 5
n 5 6
n 6 7
n 7 8
n 8 9
n 9 10
n 10 11
n 11 12
n 12 13
n 13 14
n 14 15
n 15 16
n 16 17
n 17 18
n 18 19
n 19 20
n 20 21
n 21 22
n 22 23
n 23 24
n 24 25
n 25 26
n 26 27
n 27 28
n 28 29
n 29 30
n 30 31
n 31 32
n 32 33
n 33 34
n 34 35
n 35 36
n 36 37
n 37 38
n 38 39
n 39 40
n 40 41
n 41 42
n 42 43
n 43 44
n 44 45
n 45 46
n 46 47
n 47 48
n 48 49
n 49 50
n 50 51
n 51 52
n 52 53
n 53 54
n 54 55
n 55 56
n 56 57
n 57 58
n 58 59
n 59 60
n 60 61
n 61 62
n 62 63
n 63 64
n 64 65
n 65 66
n 66 67
n 67 68
n 68 69
n 69 70
n 70 71
n 71 72
n 72 73
n 73 74
n 74 75
n 75 76
n 76 77
n 77 78
n 78 79
n 79 80
n 80 81
n 81 82
n 82 83
n 83 84
n 84 85
n 85 86
n 86 87
n 87 88
n 88 89
n 89 90
n 90 91
n 91 92
n 92 93
n 93 94
n 94 95
n 95 96
n 96 97
n 97 98
n 98 99
n 99 100
n 100 101
n 101 102
n 102 103
n 103 104
n 104 105
n 105 106
n 106 107
n 107 108
n 108 109
n 109 110
n 110 111
n 111 112
n 112 113
n 113 114
n 114 115
n 115 116
n 116 117
n 117 118
n 118 119
n 119 120
n 120 121
n 121 122
n 122 123
n 123 124
n 124 125
n 125 126
n 126 127
n 127 128
n 128 129
n 129 130
n 130 131
n 131 132
n 132 133
n 133 134
n 134 135
n 135 136
n 136 137
n 137 138
n 138 139
n 139 140
n 140 141
n 141 142
n 142 143
n 143 144
n 144 145
n 145 146
n 146 147
n 147 148
n 148 149
n 149 150
n 150 151
n 151 152
n 152 153
n 153 154
n 154 155
n 155 156
n 156 157
n 157 158
n 158 159
n 159 160
n 160 161
n 161 162
n 162 163
n 163 164
n 164 165
n 165 166
n 166 167
n 167 168
n 168 169
n 169 170
n 170 171
n 171 172
n 172 173
n 173 174
n 174 175
n 175 176
n 176 177
n 177 178
n 178 179
n 179 180
n 180 181
n 181 182
n 182 183
n 183 184
n 184 185
n 185 186
n 186 187
n 187 188
n 188 189
n 189 190
n 190 191
n 191 192
n 192 193
n 193 194
n 194 195
n 195 196
n 196 197
n 197 198
n 198 199
n 199 200
n 200 1
e 1 2
e 1 18
e 1 19
e 1 20
e 1 36
e 1 37
e 1 38
e 1 54
e 1 55
e 1 56
e 1 72
e 1 73
e 1 74
e 1 90
e 1 91
e 1 92
e 1 108
e 1 109
e 1 110
e 1 126
e 1 127
e 1 128
e 1 144
e 1 145
e 1 146
e 1 162
e 1 163
e 1 164
e 1 180
e 1 181
e 1 182
e 1 198
e 1 199
e 1 200
e 2 3
e 2 19
e 2 20
e 2 21
e 2 37
e 2 38
e 2 39
e 2 55
e 2 56
e 2 57
e 2 73
e 2 74
e 2 75
e 2 91
e 2 92
e 2 93
e 2 109
e 2 110
e 2 111
e 2 127
e 2 128
e 2 129
e 2 145
e 2 146
e 2 147
e 2 163
e 2 164
e 2 165
e 2 181
e 2 182
e 2 183
e 2 199
e 2 200
e 3 4
e 3 20
e 3 21
e 3 22
e 3 38
e 3 39
e 3 40
e 3 56
e 3 57
e 3 58
e 3 74
e 3 75
e 3 76
e 3 92
e 3 93
e 3 94
e 3 110
e 3 111
e 3 112
e 3 128
e 3 129
e 3 130
e 3 146
e 3 147
e 3 148
e 3 164
e 3 165
e 3 166
e 3 182
e 3 183
e 3 184
e 3 200
e 4 5
e 4 21
e 4 22
e 4 23
e 4 39
e 4 40
e 4 41
e 4 57
e 4 58
e 4 59
e 4 75
e 4 76
e 4 77
e 4 93
e 4 94
e 4 95
e 4 111
e 4 112
e 4 113
e 4 129
e 4 130
e 4 131
e 4 147
e 4 148
e 4 149
e 4 165
e 4 166
e 4 167
e 4 183
e 4 184
e 4 185
e 5 6
e 5 22
e 5 23
e 5 24
e 5 40
e 5 41
e 5 42
e 5 58
e 5 59
e 5 60
e 5 76
e 5 77
e 5 78
e 5 94
e 5 95
e 5 96
e 5 112
e 5 113
e 5 114
e 5 130
e 5 131
e 5 132
e 5 148
e 5 149
e 5 150
e 5 166
e 5 167
e 5 168
e 5 184
e 5 185
e 5 186
e 6 7
e 6 23
e 6 24
e 6 25
e 6 41
e 6 42
e 6 43
e 6 59
e 6 60
e 6 61
e 6 77
e 6 78
e 6 79
e 6 95
e 6 96
e 6 97
e 6 113
e 6 114
e 6 115
e 6 131
e 6 132
e 6 133
e 6 149
e 6 150
e 6 151
e 6 167
e 6 168
e 6 169
e 6 185
e 6 186
e 6 187
e 7 8
e 7 24
e 7 25
e 7 26
e 7 42
e 7 43
e 7 44
e 7 60
e 7 61
e 7 62
e 7 78
e 7 79
e 7 80
e 7 96
e 7 97
e 7 98
e 7 114
e 7 115
e 7 116
e 7 132
e 7 133
e 7 134
e 7 150
e 7 151
e 7 152
e 7 168
e 7 169
e 7 170
e 7 186
e 7 187
e 7 188
e 8 9
e 8 25
e 8 26
e 8 27
e 8 43
e 8 44
e 8 45
e 8 61
e 8 62
e 8 63
e 8 79
e 8 80
e 8 81
e 8 97
e 8 98
e 8 99
e 8 115
e 8 116
e 8 117
e 8 133
e 8 134
e 8 135
e 8 151
e 8 152
e 8 153
e 8 169
e 8 170
e 8 171
e 8 187
e 8 188
e 8 189
e 9 10
e 9 26
e 9 27
e 9 28
e 9 44
e 9 45
e 9 46
e 9 62
e 9 63
e 9 64
e 9 80
e 9 81
e 9 82
e 9 98
e 9 99
e 9 100
e 9 116
e 9 117
e 9 118
e 9 134
e 9 135
e 9 136
e 9 152
e 9 153
e 9 154
e 9 170
e 9 171
e 9 172
e 9 188
e 9 189
e 9 190
e 10 11
e 10 27
e 10 28
e 10 29
e 10 45
e 10 46
e 10 47
e 10 63
e 10 64
e 10 65
e 10 81
e 10 82
e 10 83
e 10 99
e 10 100
e 10 101
e 10 117
e 10 118
e 10 119
e 10 135
e 10 136
e 10 137
e 10 153
e 10 154
e 10 155
e 10 171
e 10 172
e 10 173
e 10 189
e 10 190
e 10 191
e 11 12
e 11 28
e 11 29
e 11 30
e 11 46
e 11 47
e 11 48
e 11 64
e 11 65
e 11 66
e 11 82
e 11 83
e 11 84
e 11 100
e 11 101
e 11 102
e 11 118
e 11 119
e 11 120
e 11 136
e 11 137
e 11 138
e 11 154
e 11 155
e 11 156
e 11 172
e 11 173
e 11 174
e 11 190
e 11 191
e 11 192
e 12 13
e 12 29
e 12 30
e 12 31
e 12 47
e 12 48
e 12 49
e 12 65
e 12 66
e 12 67
e 12 83
e 12 84
e 12 85
e 12 101
e 12 102
e 12 103
e 12 119
e 12 120
e 12 121
e 12 137
e 12 138
e 12 139
e 12 155
e 12 156
e 12 157
e 12 173
e 12 174
e 12 175
e 12 191
e 12 192
e 12 193
e 13 14
e 13 30
e 13 31
e 13 32
e 13 48
e 13 49
e 13 50
e 13 66
e 13 67
e 13 68
e 13 84
e 13 85
e 13 86
e 13 102
e 13 103
e 13 104
e 13 120
e 13 121
e 13 122
e 13 138
e 13 139
e 13 140
e 13 156
e 13 157
e 13 158
e 13 174
e 13 175
e 13 176
e 13 192
e 13 193
e 13 194
e 14 15
e 14 31
e 14 32
e 14 33
e 14 49
e 14 50
e 14 51
e 14 67
e 14 68
e 14 69
e 14 85
e 14 86
e 14 87
e 14 103
e 14 104
e 14 105
e 14 121
e 14 122
e 14 123
e 14 139
e 14 140
e 14 141
e 14 157
e 14 158
e 14 159
e 14 175
e 14 176
e 14 177
e 14 193
e 14 194
e 14 195
e 15 16
e 15 32
e 15 33
e 15 34
e 15 50
e 15 51
e 15 52
e 15 68
e 15 69
e 15 70
e 15 86
e 15 87
e 15 88
e 15 104
e 15 105
e 15 106
e 15 122
e 15 123
e 15 124
e 15 140
e 15 141
e 15 142
e 15 158
e 15 159
e 15 160
e 15 176
e 15 177
e 15 178
e 15 194
e 15 195
e 15 196
e 16 17
e 16 33
e 16 34
e 16 35
e 16 51
e 16 52
e 16 53
e 16 69
e 16 70
e 16 71
e 16 87
e 16 88
e 16 89
e 16 105
e 16 106
e 16 107
e 16 123
e 16 124
e 16 125
e 16 141
e 16 142
e 16 143
e 16 159
e 16 160
e 16 161
e 16 177
e 16 178
e 16 179
e 16 195
e 16 196
e 16 197
e 17 18
e 17 34
e 17 35
e 17 36
e 17 52
e 17 53
e 17 54
e 17 70
e 17 71
e 17 72
e 17 88
e 17 89
e 17 90
e 17 106
e 17 107
e 17 108
e 17 124
e 17 125
e 17 126
e 17 142
e 17 143
e 17 144
e 17 160
e 17 161
e 17 162
e 17 178
e 17 179
e 17 180
e 17 196
e 17 197
e 17 198
e 18 19
e 18 35
e 18 36
e 18 37
e 18 53
e 18 54
e 18 55
e 18 71
e 18 72
e 18 73
e 18 89
e 18 90
e 18 91
e 18 107
e 18 108
e 18 109
e 18 125
e 18 126
e 18 127
e 18 143
e 18 144
e 18 145
e 18 161
e 18 162
e 18 163
e 18 179
e 18 180
e 18 181
e 18 197
e 18 198
e 18 199
e 19 20
e 19 36
e 19 37
e 19 38
e 19 54
e 19 55
e 19 56
e 19 72
e 19 73
e 19 74
e 19 90
e 19 91
e 19 92
e 19 108
e 19 109
e 19 110
e 19 126
e 19 127
e 19 128
e 19 144
e 19 145
e 19 146
e 19 162
e 19 163
e 19 164
e 19 180
e 19 181
e 19 182
e 19 198
e 19 199
e 19 200
e 20 21
e 20 37
e 20 38
e 20 39
e 20 55
e 20 56
e 20 57
e 20 73
e 20 74
e 20 75
e 20 91
e 20 92
e 20 93
e 20 109
e 20 110
e 20 111
e 20 127
e 20 128
e 20 129
e 20 145
e 20 146
e 20 147
e 20 163
e 20 164
e 20 165
e 20 181
e 20 182
e 20 183
e 20 199
e 20 200
e 21 22
e 21 38
e 21 39
e 21 40
e 21 56
e 21 57
e 21 58
e 21 74
e 21 75
e 21 76
e 21 92
e 21 93
e 21 94
e 21 110
e 21 111
e 21 112
e 21 128
e 21 129
e 21 130
e 21 146
e 21 147
e 21 148
e 21 164
e 21 165
e 21 166
e 21 182
e 21 183
e 21 184
e 21 200
e 22 23
e 22 39
e 22 40
e 22 41
e 22 57
e 22 58
e 22 59
e 22 75
e 22 76
e 22 77
e 22 93
e 22 94
e 22 95
e 22 111
e 22 112
e 22 113
e 22 129
e 22 130
e 22 131
e 22 147
e 22 148
e 22 149
e 22 165
e 22 166
e 22 167
e 22 183
e 22 184
e 22 185
e 23 24
e 23 40
e 23 41
e 23 42
e 23 58
e 23 59
e 23 60
e 23 76
e 23 77
e 23 78
e 23 94
e 23 95
e 23 96
e 23 112
e 23 113
e 23 114
e 23 130
e 23 131
e 23 132
e 23 148
e 23 149
e 23 150
e 23 166
e 23 167
e 23 168
e 23 184
e 23 185
e 23 186
e 24 25
e 24 41
e 24 42
e 24 43
e 24 59
e 24 60
e 24 61
e 24 77
e 24 78
e 24 79
e 24 95
e 24 96
e 24 97
e 24 113
e 24 114
e 24 115
e 24 131
e 24 132
e 24 133
e 24 149
e 24 150
e 24 151
e 24 167
e 24 168
e 24 169
e 24 185
e 24 186
e 24 187
e 25 26
e 25 42
e 25 43
e 25 44
e 25 60
e 25 61
e 25 62
e 25 78
e 25 79
e 25 80
e 25 96
e 25 97
e 25 98
e 25 114
e 25 115
e 25 116
e 25 132
e 25 133
e 25 134
e 25 150
e 25 151
e 25 152
e 25 168
e 25 169
e 25 170
e 25 186
e 25 187
e 25 188
e 26 27
e 26 43
e 26 44
e 26 45
e 26 61
e 26 62
e 26 63
e 26 79
e 26 80
e 26 81
e 26 97
e 26 98
e 26 99
e 26 115
e 26 116
e 26 117
e 26 133
e 26 134
e 26 135
e 26 151
e 26 152
e 26 153
e 26 169
e 26 170
e 26 171
e 26 187
e 26 188
e 26 189
e 27 28
e 27 44
e 27 45
e 27 46
e 27 62
e 27 63
e 27 64
e 27 80
e 27 81
e 27 82
e 27 98
e 27 99
e 27 100
e 27 116
e 27 117
e 27 118
e 27 134
e 27 135
e 27 136
e 27 152
e 27 153
e 27 154
e 27 170
e 27 171
e 27 172
e 27 188
e 27 189
e 27 190
e 28 29
e 28 45
e 28 46
e 28 47
e 28 63
e 28 64
e 28 65
e 28 81
e 28 82
e 28 83
e 28 99
e 28 100
e 28 101
e 28 117
e 28 118
e 28 119
e 28 135
e 28 136
e 28 137
e 28 153
e 28 154
e 28 155
e 28 171
e 28 172
e 28 173
e 28 189
e 28 190
e 28 191
e 29 30
e 29 46
e 29 47
e 29 48
e 29 64
e 29 65
e 29 66
e 29 82
e 29 83
e 29 84
e 29 100
e 29 101
e 29 102
e 29 118
e 29 119
e 29 120
e 29 136
e 29 137
e 29 138
e 29 154
e 29 155
e 29 156
e 29 172
e 29 173
e 29 174
e 29 190
e 29 191
e 29 192
e 30 31
e 30 47
e 30 48
e 30 49
e 30 65
e 30 66
e 30 67
e 30 83
e 30 84
e 30 85
e 30 101
e 30 102
e 30 103
e 30 119
e 30 120
e 30 121
e 30 137
e 30 138
e 30 139
e 30 155
e 30 156
e 30 157
e 30 173
e 30 174
e 30 175
e 30 191
e 30 192
e 30 193
e 31 32
e 31 48
e 31 49
e 31 50
e 31 66
e 31 67
e 31 68
e 31 84
e 31 85
e 31 86
e 31 102
e 31 103
e 31 104
e 31 120
e 31 121
e 31 122
e 31 138
e 31 139
e 31 140
e 31 156
e 31 157
e 31 158
e 31 174
e 31 175
e 31 176
e 31 192
e 31 193
e 31 194
e 32 33
e 32 49
e 32 50
e 32 51
e 32 67
e 32 68
e 32 69
e 32 85
e 32 86
e 32 87
e 32 103
e 32 104
e 32 105
e 32 121
e 32 122
e 32 123
e 32 139
e 32 140
e 32 141
e 32 157
e 32 158
e 32 159
e 32 175
e 32 176
e 32 177
e 32 193
e 32 194
e 32 195
e 33 34
e 33 50
e 33 51
e 33 52
e 33 68
e 33 69
e 33 70
e 33 86
e 33 87
e 33 88
e 33 104
e 33 105
e 33 106
e 33 122
e 33 123
e 33 124
e 33 140
e 33 141
e 33 142
e 33 158
e 33 159
e 33 160
e 33 176
e 33 177
e 33 178
e 33 194
e 33 195
e 33 196
e 34 35
e 34 51
e 34 52
e 34 53
e 34 69
e 34 70
e 34 71
e 34 87
e 34 88
e 34 89
e 34 105
e 34 106
e 34 107
e 34 123
e 34 124
e 34 125
e 34 141
e 34 142
e 34 143
e 34 159
e 34 160
e 34 161
e 34 177
e 34 178
e 34 179
e 34 195
e 34 196
e 34 197
e 35 36
e 35 52
e 35 53
e 35 54
e 35 70
e 35 71
e 35 72
e 35 88
e 35 89
e 35 90
e 35 106
e 35 107
e 35 108
e 35 124
e 35 125
e 35 126
e 35 142
e 35 143
e 35 144
e 35 160
e 35 161
e 35 162
e 35 178
e 35 179
e 35 180
e 35 196
e 35 197
e 35 198
e 36 37
e 36 53
e 36 54
e 36 55
e 36 71
e 36 72
e 36 73
e 36 89
e 36 90
e 36 91
e 36 107
e 36 108
e 36 109
e 36 125
e 36 126
e 36 127
e 36 143
e 36 144
e 36 145
e 36 161
e 36 162
e 36 163
e 36 179
e 36 180
e 36 181
e 36 197
e 36 198
e 36 199
e 37 38
e 37 54
e 37 55
e 37 56
e 37 72
e 37 73
e 37 74
e 37 90
e 37 91
e 37 92
e 37 108
e 37 109
e 37 110
e 37 126
e 37 127
e 37 128
e 37 144
e 37 145
e 37 146
e 37 162
e 37 163
e 37 164
e 37 180
e 37 181
e 37 182
e 37 198
e 37 199
e 37 200
e 38 39
e 38 55
e 38 56
e 38 57
e 38 73
e 38 74
e 38 75
e 38 91
e 38 92
e 38 93
e 38 109
e 38 110
e 38 111
e 38 127
e 38 128
e 38 129
e 38 145
e 38 146
e 38 147
e 38 163
e 38 164
e 38 165
e 38 181
e 38 182
e 38 183
e 38 199
e 38 200
e 39 40
e 39 56
e 39 57
e 39 58
e 39 74
e 39 75
e 39 76
e 39 92
e 39 93
e 39 94
e 39 110
e 39 111
e 39 112
e 39 128
e 39 129
e 39 130
e 39 146
e 39 147
e 39 148
e 39 164
e 39 165
e 39 166
e 39 182
e 39 183
e 39 184
e 39 200
e 40 41
e 40 57
e 40 58
e 40 59
e 40 75
e 40 76
e 40 77
e 40 93
e 40 94
e 40 95
e 40 111
e 40 112
e 40 113
e 40 129
e 40 130
e 40 131
e 40 147
e 40 148
e 40 149
e 40 165
e 40 166
e 40 167
e 40 183
e 40 184
e 40 185
e 41 42
e 41 58
e 41 59
e 41 60
e 41 76
e 41 77
e 41 78
e 41 94
e 41 95
e 41 96
e 41 112
e 41 113
e 41 114
e 41 130
e 41 131
e 41 132
e 41 148
e 41 149
e 41 150
e 41 166
e 41 167
e 41 168
e 41 184
e 41 185
e 41 186
e 42 43
e 42 59
e 42 60
e 42 61
e 42 77
e 42 78
e 42 79
e 42 95
e 42 96
e 42 97
e 42 113
e 42 114
e 42 115
e 42 131
e 42 132
e 42 133
e 42 149
e 42 150
e 42 151
e 42 167
e 42 168
e 42 169
e 42 185
e 42 186
e 42 187
e 43 44
e 43 60
e 43 61
e 43 62
e 43 78
e 43 79
e 43 80
e 43 96
e 43 97
e 43 98
e 43 114
e 43 115
e 43 116
e 43 132
e 43 133
e 43 134
e 43 150
e 43 151
e 43 152
e 43 168
e 43 169
e 43 170
e 43 186
e 43 187
e 43 188
e 44 45
e 44 61
e 44 62
e 44 63
e 44 79
e 44 80
e 44 81
e 44 97
e 44 98
e 44 99
e 44 115
e 44 116
e 44 117
e 44 133
e 44 134
e 44 135
e 44 151
e 44 152
e 44 153
e 44 169
e 44 170
e 44 171
e 44 187
e 44 188
e 44 189
e 45 46
e 45 62
e 45 63
e 45 64
e 45 80
e 45 81
e 45 82
e 45 98
e 45 99
e 45 100
e 45 116
e 45 117
e 45 118
e 45 134
e 45 135
e 45 136
e 45 152
e 45 153
e 45 154
e 45 170
e 45 171
e 45 172
e 45 188
e 45 189
e 45 190
e 46 47
e 46 63
e 46 64
e 46 65
e 46 81
e 46 82
e 46 83
e 46 99
e 46 100
e 46 101
e 46 117
e 46 118
e 46 119
e 46 135
e 46 136
e 46 137
e 46 153
e 46 154
e 46 155
e 46 171
e 46 172
e 46 173
e 46 189
e 46 190
e 46 191
e 47 48
e 47 64
e 47 65
e 47 66
e 47 82
e 47 83
e 47 84
e 47 100
e 47 101
e 47 102
e 47 118
e 47 119
e 47 120
e 47 136
e 47 137
e 47 138
e 47 154
e 47 155
e 47 156
e 47 172
e 47 173
e 47 174
e 47 190
e 47 191
e 47 192
e 48 49
e 48 65
e 48 66
e 48 67
e 48 83
e 48 84
e 48 85
e 48 101
e 48 102
e 48 103
e 48 119
e 48 120
e 48 121
e 48 137
e 48 138
e 48 139
e 48 155
e 48 156
e 48 157
e 48 173
e 48 174
e 48 175
e 48 191
e 48 192
e 48 193
e 49 50
e 49 66
e 49 67
e 49 68
e 49 84
e 49 85
e 49 86
e 49 102
e 49 103
e 49 104
e 49 120
e 49 121
e 49 122
e 49 138
e 49 139
e 49 140
e 49 156
e 49 157
e 49 158
e 49 174
e 49 175
e 49 176
e 49 192
e 49 193
e 49 194
e 50 51
e 50 67
e 50 68
e 50 69
e 50 85
e 50 86
e 50 87
e 50 103
e 50 104
e 50 105
e 50 121
e 50 122
e 50 123
e 50 139
e 50 140
e 50 141
e 50 157
e 50 158
e 50 159
e 50 175
e 50 176
e 50 177
e 50 193
e 50 194
e 50 195
e 51 52
e 51 68
e 51 69
e 51 70
e 51 86
e 51 87
e 51 88
e 51 104
e 51 105
e 51 106
e 51 122
e 51 123
e 51 124
e 51 140
e 51 141
e 51 142
e 51 158
e 51 159
e 51 160
e 51 176
e 51 177
e 51 178
e 51 194
e 51 195
e 51 196
e 52 53
e 52 69
e 52 70
e 52 71
e 52 87
e 52 88
e 52 89
e 52 105
e 52 106
e 52 107
e 52 123
e 52 124
e 52 125
e 52 141
e 52 142
e 52 143
e 52 159
e 52 160
e 52 161
e 52 177
e 52 178
e 52 179
e 52 195
e 52 196
e 52 197
e 53 54
e 53 70
e 53 71
e 53 72
e 53 88
e 53 89
e 53 90
e 53 106
e 53 107
e 53 108
e 53 124
e 53 125
e 53 126
e 53 142
e 53 143
e 53 144
e 53 160
e 53 161
e 53 162
e 53 178
e 53 179
e 53 180
e 53 196
e 53 197
e 53 198
e 54 55
e 54 71
e 54 72
e 54 73
e 54 89
e 54 90
e 54 91
e 54 107
e 54 108
e 54 109
e 54 125
e 54 126
e 54 127
e 54 143
e 54 144
e 54 145
e 54 161
e 54 162
e 54 163
e 54 179
e 54 180
e 54 181
e 54 197
e 54 198
e 54 199
e 55 56
e 55 72
e 55 73
e 55 74
e 55 90
e 55 91
e 55 92
e 55 108
e 55 109
e 55 110
e 55 126
e 55 127
e 55 128
e 55 144
e 55 145
e 55 146
e 55 162
e 55 163
e 55 164
e 55 180
e 55 181
e 55 182
e 55 198
e 55 199
e 55 200
e 56 57
e 56 73
e 56 74
e 56 75
e 56 91
e 56 92
e 56 93
e 56 109
e 56 110
e 56 111
e 56 127
e 56 128
e 56 129
e 56 145
e 56 146
e 56 147
e 56 163
e 56 164
e 56 165
e 56 181
e 56 182
e 56 183
e 56 199
e 56 200
e 57 58
e 57 74
e 57 75
e 57 76
e 57 92
e 57 93
e 57 94
e 57 110
e 57 111
e 57 112
e 57 128
e 57 129
e 57 130
e 57 146
e 57 147
e 57 148
e 57 164
e 57 165
e 57 166
e 57 182
e 57 183
e 57 184
e 57 200
e 58 59
e 58 75
e 58 76
e 58 77
e 58 93
e 58 94
e 58 95
e 58 111
e 58 112
e 58 113
e 58 129
e 58 130
e 58 131
e 58 147
e 58 148
e 58 149
e 58 165
e 58 166
e 58 167
e 58 183
e 58 184
e 58 185
e 59 60
e 59 76
e 59 77
e 59 78
e 59 94
e 59 95
e 59 96
e 59 112
e 59 113
e 59 114
e 59 130
e 59 131
e 59 132
e 59 148
e 59 149
e 59 150
e 59 166
e 59 167
e 59 168
e 59 184
e 59 185
e 59 186
e 60 61
e 60 77
e 60 78
e 60 79
e 60 95
e 60 96
e 60 97
e 60 113
e 60 114
e 60 115
e 60 131
e 60 132
e 60 133
e 60 149
e 60 150
e 60 151
e 60 167
e 60 168
e 60 169
e 60 185
e 60 186
e 60 187
e 61 62
e 61 78
e 61 79
e 61 80
e 61 96
e 61 97
e 61 98
e 61 114
e 61 115
e 61 116
e 61 132
e 61 133
e 61 134
e 61 150
e 61 151
e 61 152
e 61 168
e 61 169
e 61 170
e 61 186
e 61 187
e 61 188
e 62 63
e 62 79
e 62 80
e 62 81
e 62 97
e 62 98
e 62 99
e 62 115
e 62 116
e 62 117
e 62 133
e 62 134
e 62 135
e 62 151
e 62 152
e 62 153
e 62 169
e 62 170
e 62 171
e 62 187
e 62 188
e 62 189
e 63 64
e 63 80
e 63 81
e 63 82
e 63 98
e 63 99
e 63 100
e 63 116
e 63 117
e 63 118
e 63 134
e 63 135
e 63 136
e 63 152
e 63 153
e 63 154
e 63 170
e 63 171
e 63 172
e 63 188
e 63 189
e 63 190
e 64 65
e 64 81
e 64 82
e 64 83
e 64 99
e 64 100
e 64 101
e 64 117
e 64 118
e 64 119
e 64 135
e 64 136
e 64 137
e 64 153
e 64 154
e 64 155
e 64 171
e 64 172
e 64 173
e 64 189
e 64 190
e 64 191
e 65 66
e 65 82
e 65 83
e 65 84
e 65 100
e 65 101
e 65 102
e 65 118
e 65 119
e 65 120
e 65 136
e 65 137
e 65 138
e 65 154
e 65 155
e 65 156
e 65 172
e 65 173
e 65 174
e 65 190
e 65 191
e 65 192
e 66 67
e 66 83
e 66 84
e 66 85
e 66 101
e 66 102
e 66 103
e 66 119
e 66 120
e 66 121
e 66 137
e 66 138
e 66 139
e 66 155
e 66 156
e 66 157
e 66 173
e 66 174
e 66 175
e 66 191
e 66 192
e 66 193
e 67 68
e 67 84
e 67 85
e 67 86
e 67 102
e 67 103
e 67 104
e 67 120
e 67 121
e 67 122
e 67 138
e 67 139
e 67 140
e 67 156
e 67 157
e 67 158
e 67 174
e 67 175
e 67 176
e 67 192
e 67 193
e 67 194
e 68 69
e 68 85
e 68 86
e 68 87
e 68 103
e 68 104
e 68 105
e 68 121
e 68 122
e 68 123
e 68 139
e 68 140
e 68 141
e 68 157
e 68 158
e 68 159
e 68 175
e 68 176
e 68 177
e 68 193
e 68 194
e 68 195
e 69 70
e 69 86
e 69 87
e 69 88
e 69 104
e 69 105
e 69 106
e 69 122
e 69 123
e 69 124
e 69 140
e 69 141
e 69 142
e 69 158
e 69 159
e 69 160
e 69 176
e 69 177
e 69 178
e 69 194
e 69 195
e 69 196
e 70 71
e 70 87
e 70 88
e 70 89
e 70 105
e 70 106
e 70 107
e 70 123
e 70 124
e 70 125
e 70 141
e 70 142
e 70 143
e 70 159
e 70 160
e 70 161
e 70 177
e 70 178
e 70 179
e 70 195
e 70 196
e 70 197
e 71 72
e 71 88
e 71 89
e 71 90
e 71 106
e 71 107
e 71 108
e 71 124
e 71 125
e 71 126
e 71 142
e 71 143
e 71 144
e 71 160
e 71 161
e 71 162
e 71 178
e 71 179
e 71 180
e 71 196
e 71 197
e 71 198
e 72 73
e 72 89
e 72 90
e 72 91
e 72 107
e 72 108
e 72 109
e 72 125
e 72 126
e 72 127
e 72 143
e 72 144
e 72 145
e 72 161
e 72 162
e 72 163
e 72 179
e 72 180
e 72 181
e 72 197
e 72 198
e 72 199
e 73 74
e 73 90
e 73 91
e 73 92
e 73 108
e 73 109
e 73 110
e 73 126
e 73 127
e 73 128
e 73 144
e 73 145
e 73 146
e 73 162
e 73 163
e 73 164
e 73 180
e 73 181
e 73 182
e 73 198
e 73 199
e 73 200
e 74 75
e 74 91
e 74 92
e 74 93
e 74 109
e 74 110
e 74 111
e 74 127
e 74 128
e 74 129
e 74 145
e 74 146
e 74 147
e 74 163
e 74 164
e 74 165
e 74 181
e 74 182
e 74 183
e 74 199
e 74 200
e 75 76
e 75 92
e 75 93
e 75 94
e 75 110
e 75 111
e 75 112
e 75 128
e 75 129
e 75 130
e 75 146
e 75 147
e 75 148
e 75 164
e 75 165
e 75 166
e 75 182
e 75 183
e 75 184
e 75 200
e 76 77
e 76 93
e 76 94
e 76 95
e 76 111
e 76 112
e 76 113
e 76 129
e 76 130
e 76 131
e 76 147
e 76 148
e 76 149
e 76 165
e 76 166
e 76 167
e 76 183
e 76 184
e 76 185
e 77 78
e 77 94
e 77 95
e 77 96
e 77 112
e 77 113
e 77 114
e 77 130
e 77 131
e 77 132
e 77 148
e 77 149
e 77 150
e 77 166
e 77 167
e 77 168
e 77 184
e 77 185
e 77 186
e 78 79
e 78 95
e 78 96
e 78 97
e 78 113
e 78 114
e 78 115
e 78 131
e 78 132
e 78 133
e 78 149
e 78 150
e 78 151
e 78 167
e 78 168
e 78 169
e 78 185
e 78 186
e 78 187
e 79 80
e 79 96
e 79 97
e 79 98
e 79 114
e 79 115
e 79 116
e 79 132
e 79 133
e 79 134
e 79 150
e 79 151
e 79 152
e 79 168
e 79 169
e 79 170
e 79 186
e 79 187
e 79 188
e 80 81
e 80 97
e 80 98
e 80 99
e 80 115
e 80 116
e 80 117
e 80 133
e 80 134
e 80 135
e 80 151
e 80 152
e 80 153
e 80 169
e 80 170
e 80 171
e 80 187
e 80 188
e 80 189
e 81 82
e 81 98
e 81 99
e 81 100
e 81 116
e 81 117
e 81 118
e 81 134
e 81 135
e 81 136
e 81 152
e 81 153
e 81 154
e 81 170
e 81 171
e 81 172
e 81 188
e 81 189
e 81 190
e 82 83
e 82 99
e 82 100
e 82 101
e 82 117
e 82 118
e 82 119
e 82 135
e 82 136
e 82 137
e 82 153
e 82 154
e 82 155
e 82 171
e 82 172
e 82 173
e 82 189
e 82 190
e 82 191
e 83 84
e 83 100
e 83 101
e 83 102
e 83 118
e 83 119
e 83 120
e 83 136
e 83 137
e 83 138
e 83 154
e 83 155
e 83 156
e 83 172
e 83 173
e 83 174
e 83 190
e 83 191
e 83 192
e 84 85
e 84 101
e 84 102
e 84 103
e 84 119
e 84 120
e 84 121
e 84 137
e 84 138
e 84 139
e 84 155
e 84 156
e 84 157
e 84 173
e 84 174
e 84 175
e 84 191
e 84 192
e 84 193
e 85 86
e 85 102
e 85 103
e 85 104
e 85 120
e 85 121
e 85 122
e 85 138
e 85 139
e 85 140
e 85 156
e 85 157
e 85 158
e 85 174
e 85 175
e 85 176
e 85 192
e 85 193
e 85 194
e 86 87
e 86 103
e 86 104
e 86 105
e 86 121
e 86 122
e 86 123
e 86 139
e 86 140
e 86 141
e 86 157
e 86 158
e 86 159
e 86 175
e 86 176
e 86 177
e 86 193
e 86 194
e 86 195
e 87 88
e 87 104
e 87 105
e 87 106
e 87 122
e 87 123
e 87 124
e 87 140
e 87 141
e 87 142
e 87 158
e 87 159
e 87 160
e 87 176
e 87 177
e 87 178
e 87 194
e 87 195
e 87 196
e 88 89
e 88 105
e 88 106
e 88 107
e 88 123
e 88 124
e 88 125
e 88 141
e 88 142
e 88 143
e 88 159
e 88 160
e 88 161
e 88 177
e 88 178
e 88 179
e 88 195
e 88 196
e 88 197
e 89 90
e 89 106
e 89 107
e 89 108
e 89 124
e 89 125
e 89 126
e 89 142
e 89 143
e 89 144
e 89 160
e 89 161
e 89 162
e 89 178
e 89 179
e 89 180
e 89 196
e 89 197
e 89 198
e 90 91
e 90 107
e 90 108
e 90 109
e 90 125
e 90 126
e 90 127
e 90 143
e 90 144
e 90 145
e 90 161
e 90 162
e 90 163
e 90 179
e 90 180
e 90 181
e 90 197
e 90 198
e 90 199
e 91 92
e 91 108
e 91 109
e 91 110
e 91 126
e 91 127
e 91 128
e 91 144
e 91 145
e 91 146
e 91 162
e 91 163
e 91 164
e 91 180
e 91 181
e 91 182
e 91 198
e 91 199
e 91 200
e 92 93
e 92 109
e 92 110
e 92 111
e 92 127
e 92 128
e 92 129
e 92 145
e 92 146
e 92 147
e 92 163
e 92 164
e 92 165
e 92 181
e 92 182
e 92 183
e 92 199
e 92 200
e 93 94
e 93 110
e 93 111
e 93 112
e 93 128
e 93 129
e 93 130
e 93 146
e 93 147
e 93 148
e 93 164
e 93 165
e 93 166
e 93 182
e 93 183
e 93 184
e 93 200
e 94 95
e 94 111
e 94 112
e 94 113
e 94 129
e 94 130
e 94 131
e 94 147
e 94 148
e 94 149
e 94 165
e 94 166
e 94 167
e 94 183
e 94 184
e 94 185
e 95 96
e 95 112
e 95 113
e 95 114
e 95 130
e 95 131
e 95 132
e 95 148
e 95 149
e 95 150
e 95 166
e 95 167
e 95 168
e 95 184
e 95 185
e 95 186
e 96 97
e 96 113
e 96 114
e 96 115
e 96 131
e 96 132
e 96 133
e 96 149
e 96 150
e 96 151
e 96 167
e 96 168
e 96 169
e 96 185
e 96 186
e 96 187
e 97 98
e 97 114
e 97 115
e 97 116
e 97 132
e 97 133
e 97 134
e 97 150
e 97 151
e 97 152
e 97 168
e 97 169
e 97 170
e 97 186
e 97 187
e 97 188
e 98 99
e 98 115
e 98 116
e 98 117
e 98 133
e 98 134
e 98 135
e 98 151
e 98 152
e 98 153
e 98 169
e 98 170
e 98 171
e 98 187
e 98 188
e 98 189
e 99 100
e 99 116
e 99 117
e 99 118
e 99 134
e 99 135
e 99 136
e 99 152
e 99 153
e 99 154
e 99 170
e 99 171
e 99 172
e 99 188
e 99 189
e 99 190
e 100 101
e 100 117
e 100 118
e 100 119
e 100 135
e 100 136
e 100 137
e 100 153
e 100 154
e 100 155
e 100 171
e 100 172
e 100 173
e 100 189
e 100 190
e 100 191
e 101 102
e 101 118
e 101 119
e 101 120
e 101 136
e 101 137
e 101 138
e 101 154
e 101 155
e 101 156
e 101 172
e 101 173
e 101 174
e 101 190
e 101 191
e 101 192
e 102 103
e 102 119
e 102 120
e 102 121
e 102 137
e 102 138
e 102 139
e 102 155
e 102 156
e 102 157
e 102 173
e 102 174
e 102 175
e 102 191
e 102 192
e 102 193
e 103 104
e 103 120
e 103 121
e 103 122
e 103 138
e 103 139
e 103 140
e 103 156
e 103 157
e 103 158
e 103 174
e 103 175
e 103 176
e 103 192
e 103 193
e 103 194
e 104 105
e 104 121
e 104 122
e 104 123
e 104 139
e 104 140
e 104 141
e 104 157
e 104 158
e 104 159
e 104 175
e 104 176
e 104 177
e 104 193
e 104 194
e 104 195
e 105 106
e 105 122
e 105 123
e 105 124
e 105 140
e 105 141
e 105 142
e 105 158
e 105 159
e 105 160
e 105 176
e 105 177
e 105 178
e 105 194
e 105 195
e 105 196
e 106 107
e 106 123
e 106 124
e 106 125
e 106 141
e 106 142
e 106 143
e 106 159
e 106 160
e 106 161
e 106 177
e 106 178
e 106 179
e 106 195
e 106 196
e 106 197
e 107 108
e 107 124
e 107 125
e 107 126
e 107 142
e 107 143
e 107 144
e 107 160
e 107 161
e 107 162
e 107 178
e 107 179
e 107 180
e 107 196
e 107 197
e 107 198
e 108 109
e 108 125
e 108 126
e 108 127
e 108 143
e 108 144
e 108 145
e 108 161
e 108 162
e 108 163
e 108 179
e 108 180
e 108 181
e 108 197
e 108 198
e 108 199
e 109 110
e 109 126
e 109 127
e 109 128
e 109 144
e 109 145
e 109 146
e 109 162
e 109 163
e 109 164
e 109 180
e 109 181
e 109 182
e 109 198
e 109 199
e 109 200
e 110 111
e 110 127
e 110 128
e 110 129
e 110 145
e 110 146
e 110 147
e 110 163
e 110 164
e 110 165
e 110 181
e 110 182
e 110 183
e 110 199
e 110 200
e 111 112
e 111 128
e 111 129
e 111 130
e 111 146
e 111 147
e 111 148
e 111 164
e 111 165
e 111 166
e 111 182
e 111 183
e 111 184
e 111 200
e 112 113
e 112 129
e 112 130
e 112 131
e 112 147
e 112 148
e 112 149
e 112 165
e 112 166
e 112 167
e 112 183
e 112 184
e 112 185
e 113 114
e 113 130
e 113 131
e 113 132
e 113 148
e 113 149
e 113 150
e 113 166
e 113 167
e 113 168
e 113 184
e 113 185
e 113 186
e 114 115
e 114 131
e 114 132
e 114 133
e 114 149
e 114 150
e 114 151
e 114 167
e 114 168
e 114 169
e 114 185
e 114 186
e 114 187
e 115 116
e 115 132
e 115 133
e 115 134
e 115 150
e 115 151
e 115 152
e 115 168
e 115 169
e 115 170
e 115 186
e 115 187
e 115 188
e 116 117
e 116 133
e 116 134
e 116 135
e 116 151
e 116 152
e 116 153
e 116 169
e 116 170
e 116 171
e 116 187
e 116 188
e 116 189
e 117 118
e 117 134
e 117 135
e 117 136
e 117 152
e 117 153
e 117 154
e 117 170
e 117 171
e 117 172
e 117 188
e 117 189
e 117 190
e 118 119
e 118 135
e 118 136
e 118 137
e 118 153
e 118 154
e 118 155
e 118 171
e 118 172
e 118 173
e 118 189
e 118 190
e 118 191
e 119 120
e 119 136
e 119 137
e 119 138
e 119 154
e 119 155
e 119 156
e 119 172
e 119 173
e 119 174
e 119 190
e 119 191
e 119 192
e 120 121
e 120 137
e 120 138
e 120 139
e 120 155
e 120 156
e 120 157
e 120 173
e 120 174
e 120 175
e 120 191
e 120 192
e 120 193
e 121 122
e 121 138
e 121 139
e 121 140
e 121 156
e 121 157
e 121 158
e 121 174
e 121 175
e 121 176
e 121 192
e 121 193
e 121 194
e 122 123
e 122 139
e 122 140
e 122 141
e 122 157
e 122 158
e 122 159
e 122 175
e 122 176
e 122 177
e 122 193
e 122 194
e 122 195
e 123 124
e 123 140
e 123 141
e 123 142
e 123 158
e 123 159
e 123 160
e 123 176
e 123 177
e 123 178
e 123 194
e 123 195
e 123 196
e 124 125
e 124 141
e 124 142
e 124 143
e 124 159
e 124 160
e 124 161
e 124 177
e 124 178
e 124 179
e 124 195
e 124 196
e 124 197
e 125 126
e 125 142
e 125 143
e 125 144
e 125 160
e 125 161
e 125 162
e 125 178
e 125 179
e 125 180
e 125 196
e 125 197
e 125 198
e 126 127
e 126 143
e 126 144
e 126 145
e 126 161
e 126 162
e 126 163
e 126 179
e 126 180
e 126 181
e 126 197
e 126 198
e 126 199
e 127 128
e 127 144
e 127 145
e 127 146
e 127 162
e 127 163
e 127 164
e 127 180
e 127 181
e 127 182
e 127 198
e 127 199
e 127 200
e 128 129
e 128 145
e 128 146
e 128 147
e 128 163
e 128 164
e 128 165
e 128 181
e 128 182
e 128 183
e 128 199
e 128 200
e 129 130
e 129 146
e 129 147
e 129 148
e 129 164
e 129 165
e 129 166
e 129 182
e 129 183
e 129 184
e 129 200
e 130 131
e 130 147
e 130 148
e 130 149
e 130 165
e 130 166
e 130 167
e 130 183
e 130 184
e 130 185
e 131 132
e 131 148
e 131 149
e 131 150
e 131 166
e 131 167
e 131 168
e 131 184
e 131 185
e 131 186
e 132 133
e 132 149
e 132 150
e 132 151
e 132 167
e 132 168
e 132 169
e 132 185
e 132 186
e 132 187
e 133 134
e 133 150
e 133 151
e 133 152
e 133 168
e 133 169
e 133 170
e 133 186
e 133 187
e 133 188
e 134 135
e 134 151
e 134 152
e 134 153
e 134 169
e 134 170
e 134 171
e 134 187
e 134 188
e 134 189
e 135 136
e 135 152
e 135 153
e 135 154
e 135 170
e 135 171
e 135 172
e 135 188
e 135 189
e 135 190
e 136 137
e 136 153
e 136 154
e 136 155
e 136 171
e 136 172
e 136 173
e 136 189
e 136 190
e 136 191
e 137 138
e 137 154
e 137 155
e 137 156
e 137 172
e 137 173
e 137 174
e 137 190
e 137 191
e 137 192
e 138 139
e 138 155
e 138 156
e 138 157
e 138 173
e 138 174
e 138 175
e 138 191
e 138 192
e 138 193
e 139 140
e 139 156
e 139 157
e 139 158
e 139 174
e 139 175
e 139 176
e 139 192
e 139 193
e 139 194
e 140 141
e 140 157
e 140 158
e 140 159
e 140 175
e 140 176
e 140 177
e 140 193
e 140 194
e 140 195
e 141 142
e 141 158
e 141 159
e 141 160
e 141 176
e 141 177
e 141 178
e 141 194
e 141 195
e 141 196
e 142 143
e 142 159
e 142 160
e 142 161
e 142 177
e 142 178
e 142 179
e 142 195
e 142 196
e 142 197
e 143 144
e 143 160
e 143 161
e 143 162
e 143 178
e 143 179
e 143 180
e 143 196
e 143 197
e 143 198
e 144 145
e 144 161
e 144 162
e 144 163
e 144 179
e 144 180
e 144 181
e 144 197
e 144 198
e 144 199
e 145 146
e 145 162
e 145 163
e 145 164
e 145 180
e 145 181
e 145 182
e 145 198
e 145 199
e 145 200
e 146 147
e 146 163
e 146 164
e 146 165
e 146 181
e 146 182
e 146 183
e 146 199
e 146 200
e 147 148
e 147 164
e 147 165
e 147 166
e 147 182
e 147 183
e 147 184
e 147 200
e 148 149
e 148 165
e 148 166
e 148 167
e 148 183
e 148 184
e 148 185
e 149 150
e 149 166
e 149 167
e 149 168
e 149 184
e 149 185
e 149 186
e 150 151
e 150 167
e 150 168
e 150 169
e 150 185
e 150 186
e 150 187
e 151 152
e 151 168
e 151 169
e 151 170
e 151 186
e 151 187
e 151 188
e 152 153
e 152 169
e 152 170
e 152 171
e 152 187
e 152 188
e 152 189
e 153 154
e 153 170
e 153 171
e 153 172
e 153 188
e 153 189
e 153 190
e 154 155
e 154 171
e 154 172
e 154 173
e 154 189
e 154 190
e 154 191
e 155 156
e 155 172
e 155 173
e 155 174
e 155 190
e 155 191
e 155 192
e 156 157
e 156 173
e 156 174
e 156 175
e 156 191
e 156 192
e 156 193
e 157 158
e 157 174
e 157 175
e 157 176
e 157 192
e 157 193
e 157 194
e 158 159
e 158 175
e 158 176
e 158 177
e 158 193
e 158 194
e 158 195
e 159 160
e 159 176
e 159 177
e 159 178
e 159 194
e 159 195
e 159 196
e 160 161
e 160 177
e 160 178
e 160 179
e 160 195
e 160 196
e 160 197
e 161 162
e 161 178
e 161 179
e 161 180
e 161 196
e 161 197
e 161 198
e 162 163
e 162 179
e 162 180
e 162 181
e 162 197
e 162 198
e 162 199
e 163 164
e 163 180
e 163 181
e 163 182
e 163 198
e 163 199
e 163 200
e 164 165
e 164 181
e 164 182
e 164 183
e 164 199
e 164 200
e 165 166
e 165 182
e 165 183
e 165 184
e 165 200
e 166 167
e 166 183
e 166 184
e 166 185
e 167 168
e 167 184
e 167 185
e 167 186
e 168 169
e 168 185
e 168 186
e 168 187
e 169 170
e 169 186
e 169 187
e 169 188
e 170 171
e 170 187
e 170 188
e 170 189
e 171 172
e 171 188
e 171 189
e 171 190
e 172 173
e 172 189
e 172 190
e 172 191
e 173 174
e 173 190
e 173 191
e 173 192
e 174 175
e 174 191
e 174 192
e 174 193
e 175 176
e 175 192
e 175 193
e 175 194
e 176 177
e 176 193
e 176 194
e 176 195
e 177 178
e 177 194
e 177 195
e 177 196
e 178 179
e 178 195
e 178 196
e 178 197
e 179 180
e 179 196
e 179 197
e 179 198
e 180 181
e 180 197
e 180 198
e 180 199
e 181 182
e 181 198
e 181 199
e 181 200
e 182 183
e 182 199
e 182 200
e 183 184
e 183 200
e 184 185
e 185 186
e 186 187
e 187 188
e 188 189
e 189 190
e 190 191
e 191 192
e 192 193
e 193 194
e 194 195
e 195 196
e 196 197
e 197 198
e 198 199
e 199 200
